
n_res = 4;
rcap = [29, 27, 219, 198];
rtype = [1, 1, 2, 2];
n_tasks = 50;
modes =  [{1, 2, 3}, {4, 5, 6}, {7, 8, 9}, {10, 11, 12}, {13, 14, 15}, {16, 17, 18}, {19, 20, 21}, {22, 23, 24}, {25, 26, 27}, {28, 29, 30}, {31, 32, 33}, {34, 35, 36}, {37, 38, 39}, {40, 41, 42}, {43, 44, 45}, {46, 47, 48}, {49, 50, 51}, {52, 53, 54}, {55, 56, 57}, {58, 59, 60}, {61, 62, 63}, {64, 65, 66}, {67, 68, 69}, {70, 71, 72}, {73, 74, 75}, {76, 77, 78}, {79, 80, 81}, {82, 83, 84}, {85, 86, 87}, {88, 89, 90}, {91, 92, 93}, {94, 95, 96}, {97, 98, 99}, {100, 101, 102}, {103, 104, 105}, {106, 107, 108}, {109, 110, 111}, {112, 113, 114}, {115, 116, 117}, {118, 119, 120}, {121, 122, 123}, {124, 125, 126}, {127, 128, 129}, {130, 131, 132}, {133, 134, 135}, {136, 137, 138}, {139, 140, 141}, {142, 143, 144}, {145, 146, 147}, {148, 149, 150}];
succ =  [{25, 24, 15, 14, 8, 4}, {33, 30, 24, 19, 18, 16, 15, 14, 13, 12, 11}, {33, 30, 28, 26, 24, 23, 20, 18, 17, 12}, {16, 13, 12, 10}, {30, 21, 18, 17, 16, 13}, {33, 28, 26, 23, 22, 20, 17, 15}, {28, 26, 20, 17, 12}, {41, 33, 32, 30, 29, 28, 26, 23, 21}, {29, 21, 20, 15, 14}, {34, 33, 32, 30, 28, 27, 26, 20}, {28, 26, 23, 20, 17}, {35, 32, 31, 29, 27, 22}, {28, 26, 23, 20}, {41, 36, 35, 32, 28, 26}, {41, 40, 39, 37, 36, 35, 34, 32, 31}, {50, 41, 39, 36, 34, 32, 28}, {50, 40, 37, 34, 31, 27}, {50, 40, 37, 34, 27}, {50, 47, 41, 40, 39, 35, 31}, {49, 41, 37, 36, 35, 31}, {50, 49, 47, 45, 38, 37, 35, 34}, {50, 48, 47, 45, 43, 40, 34}, {50, 49, 48, 47, 31}, {41, 39, 36, 31}, {48, 40, 31}, {50, 49, 48, 47, 46, 45, 43, 39}, {48, 47, 45, 41, 39, 38}, {40, 31}, {49, 45, 44, 43, 39, 36}, {48, 47, 44, 43, 42, 40}, {46, 45, 44, 42, 38}, {48, 45, 38}, {50, 46, 39}, {46, 44, 42}, {48, 43, 42}, {47, 42}, {46, 43}, {43}, {42}, {49}, {44}, {}, {}, {}, {}, {}, {}, {}, {}, {}];
n_opt = 150;
dur = [1, 8, 10, 5, 7, 10, 1, 3, 4, 2, 2, 5, 4, 5, 8, 1, 2, 10, 1, 4, 10, 2, 6, 7, 3, 5, 8, 3, 5, 10, 6, 7, 8, 5, 5, 9, 3, 7, 10, 3, 7, 10, 6, 7, 8, 2, 3, 4, 1, 3, 4, 8, 9, 10, 2, 2, 5, 2, 5, 10, 3, 8, 9, 1, 4, 10, 8, 9, 9, 1, 7, 7, 6, 7, 7, 5, 7, 9, 4, 6, 10, 1, 2, 9, 3, 5, 7, 4, 8, 9, 3, 6, 8, 1, 4, 9, 2, 4, 10, 2, 6, 9, 1, 2, 9, 8, 9, 10, 1, 2, 6, 6, 7, 10, 4, 7, 10, 3, 8, 10, 6, 9, 10, 5, 7, 9, 4, 5, 7, 1, 9, 10, 2, 5, 6, 4, 8, 8, 1, 5, 6, 2, 7, 10, 3, 8, 10, 7, 8, 9];
rreq = [|0, 0, 1, 5, 5, 0, 6, 5, 5, 0, 0, 7, 4, 3, 2, 5, 3, 0, 0, 7, 0, 0, 9, 0, 0, 4, 1, 7, 6, 0, 0, 0, 0, 8, 0, 7, 4, 3, 0, 0, 8, 8, 0, 3, 0, 0, 2, 2, 0, 8, 8, 0, 4, 3, 9, 9, 8, 0, 0, 3, 6, 3, 0, 0, 0, 0, 8, 7, 7, 4, 2, 0, 7, 0, 0, 0, 4, 4, 0, 0, 2, 0, 0, 0, 0, 0, 10, 7, 0, 0, 9, 7, 5, 6, 0, 0, 6, 4, 0, 10, 9, 8, 9, 0, 0, 5, 0, 0, 6, 0, 4, 8, 0, 0, 8, 0, 0, 0, 6, 3, 0, 0, 0, 3, 0, 1, 7, 0, 5, 0, 6, 0, 5, 0, 2, 0, 6, 0, 8, 0, 4, 3, 0, 0, 0, 7, 0, 0, 2, 0
 |7, 4, 0, 0, 0, 8, 0, 0, 0, 6, 5, 0, 0, 0, 0, 0, 0, 10, 10, 0, 3, 10, 0, 9, 8, 0, 0, 0, 0, 3, 5, 4, 4, 0, 8, 0, 0, 0, 2, 6, 0, 0, 2, 0, 1, 5, 0, 0, 9, 0, 0, 2, 0, 0, 0, 0, 0, 7, 6, 0, 0, 0, 5, 10, 8, 8, 0, 0, 0, 0, 0, 3, 0, 1, 1, 8, 0, 0, 4, 4, 0, 9, 8, 8, 7, 5, 0, 0, 4, 4, 0, 0, 0, 0, 8, 8, 0, 0, 9, 0, 0, 0, 0, 5, 1, 0, 4, 3, 0, 2, 0, 0, 2, 1, 0, 6, 2, 8, 0, 0, 8, 7, 6, 0, 6, 0, 0, 6, 0, 8, 0, 5, 0, 6, 0, 7, 0, 3, 0, 2, 0, 0, 7, 3, 5, 0, 4, 5, 0, 5
 |8, 6, 0, 9, 0, 4, 0, 0, 7, 0, 6, 0, 0, 3, 1, 8, 4, 3, 0, 0, 0, 7, 6, 0, 10, 9, 9, 7, 7, 0, 9, 0, 0, 5, 0, 0, 8, 0, 6, 0, 0, 7, 0, 0, 0, 0, 6, 0, 4, 0, 2, 7, 6, 4, 4, 0, 3, 0, 0, 6, 3, 0, 0, 8, 0, 6, 7, 0, 5, 7, 0, 6, 0, 0, 2, 4, 0, 0, 8, 6, 0, 8, 0, 5, 0, 6, 6, 0, 0, 0, 0, 7, 0, 0, 0, 0, 0, 6, 2, 0, 0, 4, 0, 8, 4, 6, 6, 6, 5, 5, 0, 0, 6, 0, 0, 0, 7, 0, 0, 8, 8, 0, 0, 0, 0, 3, 3, 0, 0, 0, 3, 2, 0, 0, 2, 0, 0, 7, 9, 8, 0, 8, 0, 5, 0, 4, 4, 7, 0, 2
 |0, 0, 4, 0, 8, 0, 5, 2, 0, 8, 0, 5, 4, 0, 0, 0, 0, 0, 6, 6, 5, 0, 0, 3, 0, 0, 0, 0, 0, 4, 0, 8, 7, 0, 1, 1, 0, 5, 0, 1, 1, 0, 6, 5, 3, 6, 0, 6, 0, 1, 0, 0, 0, 0, 0, 6, 0, 9, 8, 0, 0, 5, 2, 0, 3, 0, 0, 3, 0, 0, 3, 0, 5, 4, 0, 0, 10, 9, 0, 0, 3, 0, 7, 0, 8, 0, 0, 7, 7, 6, 4, 0, 2, 6, 4, 1, 5, 0, 0, 3, 2, 0, 8, 0, 0, 0, 0, 0, 0, 0, 8, 9, 0, 9, 7, 5, 0, 6, 5, 0, 0, 6, 5, 3, 3, 0, 0, 5, 3, 5, 0, 0, 7, 6, 0, 10, 6, 0, 0, 0, 5, 0, 5, 0, 9, 0, 0, 0, 9, 0|];